results_rootrelaxation/bin018_080_045.srr.sol
solution status: optimal solution found
objective value:                     19.0322585390025
_var2807_                          0.0400306848918679 	(obj:0)
_var2951_                          0.0682719283765013 	(obj:0)
_var2960_                           0.171794595476555 	(obj:0)
_var3025_                          0.0489374887788609 	(obj:2)
_var3118_                           0.332890566251465 	(obj:0)
_var3144_                           0.543996578890601 	(obj:1)
_var3166_                           0.169699974083249 	(obj:2)
_var3188_                           0.506610029019722 	(obj:0)
_var3191_                         0.000422702150961102 	(obj:0)
_var3199_                          0.0156213982145836 	(obj:0)
_var3242_                           0.101211001687001 	(obj:1)
_var3262_                          0.0601913798792449 	(obj:1)
_var3268_                           0.236306289431508 	(obj:1)
_var3272_                          0.0363849441341727 	(obj:2)
_var3277_                         0.00686815651507824 	(obj:2)
_var3301_                           0.323210371448771 	(obj:0)
_var3303_                          0.0255042439031507 	(obj:1)
_var3304_                          0.0268919757490599 	(obj:1)
_var3309_                           0.286211715379087 	(obj:1)
_var3312_                          0.0583084650880235 	(obj:3)
_var3319_                            0.11761942481963 	(obj:1)
_var3328_                           0.273117284571178 	(obj:2)
_var3335_                          0.0447749193439016 	(obj:1)
_var3336_                            0.15778202869747 	(obj:1)
_var3339_                          0.0156213982145836 	(obj:1)
_var3340_                           0.194493938374465 	(obj:0)
_var3355_                           0.157726610649555 	(obj:1)
_var3361_                           0.088583330855311 	(obj:1)
_var3366_                           0.098690039372248 	(obj:2)
_var3372_                           0.034286542988813 	(obj:3)
_var3374_                           0.107938010345605 	(obj:3)
_var3384_                           0.162230692033487 	(obj:2)
_var3385_                          0.0544711061560782 	(obj:0)
_var3403_                           0.478157981215052 	(obj:0)
_var3405_                           0.268707506844242 	(obj:2)
_var3415_                          0.0337341858713035 	(obj:2)
_var3421_                          0.0106415788588253 	(obj:2)
_var3422_                           0.133436663064262 	(obj:2)
_var3426_                          0.0783041675359634 	(obj:1)
_var3427_                           0.370208643542495 	(obj:1)
_var3431_                         0.00177126642465057 	(obj:2)
_var3442_                           0.162856002052866 	(obj:1)
_var3444_                          0.0337341858713036 	(obj:0)
_var3445_                          0.0206571749631418 	(obj:0)
_var3447_                          0.0236588735886277 	(obj:3)
_var3448_                           0.178918258675747 	(obj:2)
_var3449_                           0.247023711314395 	(obj:0)
_var3450_                         0.00452157538937846 	(obj:3)
_var3458_                          0.0783041675359634 	(obj:0)
_var3462_                           0.248202197228862 	(obj:0)
_var3469_                         0.00747475611110231 	(obj:2)
_var3475_                            0.32560939012739 	(obj:0)
_var3476_                          0.0550497953775408 	(obj:2)
_var3483_                           0.150307272586368 	(obj:1)
_var3486_                           0.242687050967827 	(obj:1)
_var3487_                            0.50484276032632 	(obj:0)
_var3489_                          0.0795244638848643 	(obj:1)
_var3490_                           0.235760636168416 	(obj:1)
_var3498_                          0.0277789193670074 	(obj:2)
_var3504_                          0.0878130990112623 	(obj:0)
_var3508_                            0.27564932767588 	(obj:1)
_var3509_                           0.171794595476555 	(obj:1)
_var3511_                           0.183448759644504 	(obj:1)
_var3515_                          0.0583084650880237 	(obj:2)
_var3520_                             0.2030207643947 	(obj:1)
_var3522_                           0.127019676132654 	(obj:1)
_var3524_                           0.201384899200817 	(obj:1)
_var3525_                           0.140008445229864 	(obj:2)
_var3531_                           0.532483597643774 	(obj:1)
_var3536_                          0.0339838447121702 	(obj:2)
_var3542_                            0.19261593624874 	(obj:3)
_var3546_                          0.0983674406431957 	(obj:1)
_var3548_                           0.119425452238693 	(obj:1)
_var3554_                          0.0574776968420609 	(obj:2)
_var3555_                           0.127341033500899 	(obj:0)
_var3559_                          0.0437649877417257 	(obj:0)
_var3561_                          0.0289495909260651 	(obj:2)
_var3563_                           0.209062734564866 	(obj:0)
_var3565_                           0.157873915424261 	(obj:1)
_var3566_                           0.132918985244153 	(obj:1)
_var3567_                           0.346146092723607 	(obj:2)
_var3568_                          0.0583084650880236 	(obj:1)
_var3571_                          0.0952919811829905 	(obj:2)
_var3574_                           0.180197003453348 	(obj:2)
_var3577_                          0.0757798823940422 	(obj:0)
_var3579_                          0.0298407657985875 	(obj:2)
_var3581_                            0.10603553598818 	(obj:1)
_var3583_                         0.000558481501530234 	(obj:3)
_var3585_                           0.450434985260665 	(obj:0)
_var3587_                            0.20114134160853 	(obj:2)
_var3594_                          0.0253541335951905 	(obj:4)
_var3603_                           0.151016236008816 	(obj:3)
_var3605_                          0.0137067206370171 	(obj:0)
_var3613_                             0.1058421967543 	(obj:1)
_var3619_                          0.0489374887788609 	(obj:1)
_var3625_                           0.130273771171919 	(obj:1)
_var3626_                            0.16806209212992 	(obj:1)
_var3628_                           0.161717060022963 	(obj:1)
_var3630_                          0.0386023178194381 	(obj:2)
_var3633_                            0.12210407713569 	(obj:2)
_var3635_                           0.128382561241985 	(obj:2)
_var3636_                          0.0274759539483621 	(obj:1)
_var3640_                          0.0337341858713034 	(obj:2)
_var3643_                          0.0408026352651099 	(obj:3)
_var3645_                           0.193564647146156 	(obj:2)
_var3647_                           0.054497008446986 	(obj:1)
_var3649_                          0.0112156536450379 	(obj:0)
_var3654_                          0.0810792867266635 	(obj:1)
_var3655_                           0.127926302946797 	(obj:1)
_var3658_                          0.0487155085966902 	(obj:2)
_var3661_                           0.313271411841719 	(obj:2)
_var3665_                          0.0213888194283523 	(obj:2)
_var3666_                          0.0707211979477328 	(obj:1)
_var3668_                          0.0713341196634665 	(obj:0)
_var3670_                           0.122062614094306 	(obj:2)
_var3672_                          0.0136404509845709 	(obj:1)
_var3675_                          0.0294259293347863 	(obj:2)
_var3679_                          0.0471235985645652 	(obj:3)
_var3681_                          0.0568615325502132 	(obj:3)
_var3683_                          0.0783041675359634 	(obj:2)
_var3688_                           0.103385563245702 	(obj:3)
_var3691_                          0.0482067729845568 	(obj:3)
_var3693_                           0.048229236771106 	(obj:1)
_var3695_                          0.0817871851960165 	(obj:0)
_var3696_                           0.220549588673256 	(obj:2)
_var3697_                           0.099889595886163 	(obj:2)
_var3698_                          0.0323357133986645 	(obj:2)
_var3699_                          0.0220409076318319 	(obj:3)
_var3700_                           0.106339160043805 	(obj:3)
_var3702_                          0.0929973376678739 	(obj:3)
_var3703_                         0.00115021007230237 	(obj:3)
_var3705_                          0.0856264466561784 	(obj:3)
_var3708_                          0.0775179913992688 	(obj:2)
_var3709_                         0.00301013763770519 	(obj:2)
_var3711_                         0.000560169303974112 	(obj:1)
_var3712_                          0.0106415788588253 	(obj:1)
_var3713_                          0.0533897091883469 	(obj:3)
_var3714_                           0.063483434025627 	(obj:2)
_var3715_                          0.0166947982738444 	(obj:1)
